c ren 1 -> 1
c ren 2 -> 2
c ren 3 -> 3
c ren 4 -> 4
c ren 5 -> 5
c ren 6 -> 6
c ren 7 -> 7
c ren 8 -> 8
c ren 9 -> 9
c ren 10 -> 10
c ren 11 -> 11
c ren 12 -> 12
c ren 13 -> 13
c ren 14 -> 14
c ren 15 -> 15
c ren 16 -> 16
c ren 17 -> 17
c ren 18 -> 18
c ren 19 -> 19
c ren 20 -> 20
c ren 21 -> 21
c ren 22 -> 22
c ren 23 -> 23
c ren 24 -> 24
c ren 25 -> 25
c ren 26 -> 26
c ren 27 -> 27
c ren 28 -> 28
c ren 29 -> 29
c ren 30 -> 30
c ren 31 -> 31
c ren 32 -> 32
c ren 33 -> 33
c ren 34 -> 34
c ren 35 -> 35
c ren 36 -> 36
c ren 37 -> 37
c ren 38 -> 38
c ren 39 -> 39
c ren 40 -> 40
c ren 41 -> 41
c ren 42 -> 42
c ren 43 -> 43
c ren 44 -> 44
c ren 45 -> 45
c ren 46 -> 46
c ren 47 -> 47
c ren 48 -> 48
c ren 49 -> 49
c ren 50 -> 50
c ren 51 -> 51
c ren 52 -> 52
c ren 53 -> 53
c ren 54 -> 54
c ren 55 -> 55
c ren 56 -> 56
c ren 57 -> 57
c ren 58 -> 58
c ren 59 -> 59
c ren 60 -> 60
c ren 61 -> 61
c ren 62 -> 62
c ren 63 -> 63
c ren 64 -> 64
c ren 65 -> 65
c ren 66 -> 66
c ren 67 -> 67
c ren 68 -> 68
c ren 69 -> 69
c ren 70 -> 70
c ren 71 -> 71
c ren 72 -> 72
c ren 73 -> 73
c ren 74 -> 74
c ren 75 -> 75
c ren 76 -> 76
c ren 77 -> 77
c ren 78 -> 78
c ren 79 -> 79
c ren 80 -> 80
c ren 81 -> 81
c ren 82 -> 82
c ren 83 -> 83
c ren 84 -> 84
c ren 101 -> 85
c ren 116 -> 86
c ren 123 -> 87
c ren 130 -> 88
c ren 133 -> 89
c ren 134 -> 90
c ren 136 -> 91
c ren 137 -> 92
c ren 140 -> 93
c ren 141 -> 94
c ren 143 -> 95
c ren 144 -> 96
c ren 148 -> 97
c ren 149 -> 98
c ren 167 -> 99
c ren 171 -> 100
c ren 172 -> 101
c ren 173 -> 102
c ren 174 -> 103
c ren 175 -> 104
c ren 176 -> 105
c ren 179 -> 106
c ren 180 -> 107
c ren 181 -> 108
c ren 182 -> 109
c ren 183 -> 110
c ren 184 -> 111
c ren 185 -> 112
c ren 186 -> 113
c ren 187 -> 114
c ren 188 -> 115
c ren 195 -> 116
c ren 197 -> 117
c ren 202 -> 118
c ren 211 -> 119
c ren 213 -> 120
c ren 218 -> 121
c ren 227 -> 122
c ren 229 -> 123
c ren 234 -> 124
c ren 243 -> 125
c ren 245 -> 126
c ren 250 -> 127
c ren 259 -> 128
c ren 261 -> 129
c ren 271 -> 130
c ren 283 -> 131
c ren 295 -> 132
c ren 307 -> 133
c ren 320 -> 134
c ren 322 -> 135
c ren 323 -> 136
c ren 330 -> 137
c ren 331 -> 138
c ren 338 -> 139
c ren 339 -> 140
c ren 343 -> 141
c ren 360 -> 142
c ren 368 -> 143
c ren 369 -> 144
c ren 385 -> 145
c ren 392 -> 146
c ren 393 -> 147
c ren 400 -> 148
c ren 401 -> 149
c ren 405 -> 150
c ren 422 -> 151
c ren 428 -> 152
c ren 429 -> 153
c ren 436 -> 154
c ren 437 -> 155
c ren 441 -> 156
c ren 457 -> 157
c ren 465 -> 158
c ren 471 -> 159
c ren 472 -> 160
c ren 476 -> 161
p cnf 161 944
a 1 2 3 4 5 6 7 8 9 10 11 12 13 14 15 16 17 18 19 20 21 22 23 24 25 26 27 28 29 30 31 32 33 34 35 36 37 38 39 40 41 42 43 44 45 46 47 48 49 50 51 52 53 54 55 56 57 58 59 60 61 0
d 62 1 2 3 4 5 6 7 8 9 10 11 12 13 14 15 16 17 18 19 20 21 22 23 24 25 26 27 28 29 30 31 32 33 34 35 36 37 38 39 40 0
d 63 1 2 3 4 5 6 7 8 9 10 11 12 13 14 15 16 17 18 19 20 21 22 23 24 25 26 27 28 29 30 31 32 33 34 35 36 37 38 39 40 0
d 64 1 2 3 4 5 6 7 8 9 10 11 12 13 14 15 16 17 18 19 20 21 22 23 24 25 26 27 28 29 30 31 32 33 34 35 36 37 38 39 40 0
d 65 1 2 3 4 5 6 7 8 9 10 11 12 13 14 15 16 17 18 19 20 21 22 23 24 25 26 27 28 29 30 31 32 33 34 35 36 37 38 39 40 0
d 66 1 2 3 4 5 6 7 8 9 10 11 12 13 14 15 16 17 18 19 20 21 22 23 24 25 26 27 28 29 30 31 32 33 34 35 36 37 38 39 40 0
d 67 1 2 3 4 5 6 7 8 9 10 11 12 13 14 15 16 17 18 19 20 21 22 23 24 25 26 27 28 29 30 31 32 33 34 35 36 37 38 39 40 0
d 68 1 2 3 4 5 6 7 8 9 10 11 12 13 14 15 16 17 18 19 20 21 22 23 24 25 26 27 28 29 30 31 32 33 34 35 36 37 38 39 40 0
d 69 1 2 3 4 5 6 7 8 9 10 11 12 13 14 15 16 17 18 19 20 21 22 23 24 25 26 27 28 29 30 31 32 33 34 35 36 37 38 39 40 0
d 70 1 2 3 4 5 6 7 8 9 10 11 12 13 14 15 16 17 18 19 20 21 22 23 24 25 26 27 28 29 30 31 32 33 34 35 36 37 38 39 40 0
d 71 1 2 3 4 5 6 7 8 9 10 11 12 13 14 15 16 17 18 19 20 21 22 23 24 25 26 27 28 29 30 31 32 33 34 35 36 37 38 39 40 0
d 72 1 2 3 4 5 6 7 8 9 10 11 12 13 14 15 16 17 18 19 20 21 22 23 24 25 26 27 28 29 30 31 32 33 34 35 36 37 38 39 40 0
d 73 1 2 3 4 5 6 7 8 9 10 11 12 13 14 15 16 17 18 19 20 21 22 23 24 25 26 27 28 29 30 31 32 33 34 35 36 37 38 39 40 0
d 74 1 2 3 4 5 6 7 8 9 10 11 12 13 14 15 16 17 18 19 20 21 22 23 24 25 26 27 28 29 30 31 32 33 34 35 36 37 38 39 40 0
d 75 1 2 3 4 5 6 7 8 9 10 11 12 13 14 15 16 17 18 19 20 21 22 23 24 25 26 27 28 29 30 31 32 33 34 35 36 37 38 39 40 0
d 76 1 2 3 4 5 6 7 8 9 10 11 12 13 14 15 16 17 18 19 20 21 22 23 24 25 26 27 28 29 30 31 32 33 34 35 36 37 38 39 40 0
d 77 1 2 3 4 5 6 7 8 9 10 11 12 13 14 15 16 17 18 19 20 21 22 23 24 25 26 27 28 29 30 31 32 33 34 35 36 37 38 39 40 0
d 78 1 2 3 4 5 6 7 8 9 10 11 12 13 14 15 16 17 18 19 20 21 22 23 24 25 26 27 28 29 30 31 32 33 34 35 36 37 38 39 40 0
d 79 1 2 3 4 5 6 7 8 9 10 11 12 13 14 15 16 17 18 19 20 21 22 23 24 25 26 27 28 29 30 31 32 33 34 35 36 37 38 39 40 0
d 80 1 2 3 4 5 6 7 8 9 10 11 12 13 14 15 16 17 18 19 20 21 22 23 24 25 26 27 28 29 30 31 32 33 34 35 36 37 38 39 40 0
d 81 20 21 22 23 24 25 26 27 28 29 30 31 32 33 34 35 36 37 38 39 40 0
d 82 41 42 43 44 45 46 47 48 49 50 51 52 53 54 55 56 57 58 59 60 61 0
e 83 84 85 86 87 88 89 90 91 92 93 94 95 96 97 98 99 100 101 102 103 104 105 106 107 108 109 110 111 112 113 114 115 116 117 118 119 120 121 122 123 124 125 126 127 128 129 130 131 132 133 134 135 136 137 138 139 140 141 142 143 144 145 146 147 148 149 150 151 152 153 154 155 156 157 158 159 160 161 0
-61 -83 0
40 -83 0
-40 61 83 0
61 -84 0
-40 -84 0
40 -61 84 0
-84 -85 0
36 37 38 39 57 58 59 60 83 84 85 0
36 37 -38 39 57 58 -59 60 83 84 85 0
36 -37 38 39 57 -58 59 60 83 84 85 0
-36 -37 38 -39 -57 -58 59 -60 83 84 85 0
36 37 -38 -39 57 58 -59 -60 83 84 85 0
36 -37 38 -39 57 -58 59 -60 83 84 85 0
-36 -37 -38 -39 -57 -58 -59 -60 83 84 85 0
36 -37 -38 -39 57 -58 -59 -60 83 84 85 0
-14 33 124 134 161 0
-36 37 38 -39 -57 58 59 -60 83 84 85 0
13 -14 33 134 161 0
-83 -85 0
-36 37 38 39 -57 58 59 60 83 84 85 0
-36 37 -38 39 -57 58 -59 60 83 84 85 0
-36 37 -38 -39 -57 58 -59 -60 83 84 85 0
36 37 38 -39 57 58 59 -60 83 84 85 0
14 15 33 124 126 0
-36 -37 -38 39 -57 -58 -59 60 83 84 85 0
-12 32 53 -122 158 0
36 -37 -38 39 57 -58 -59 60 83 84 85 0
-36 -37 38 39 -57 -58 59 60 83 84 85 0
13 15 33 105 126 0
20 21 22 -23 41 42 43 -44 86 0
20 21 -22 -23 41 42 -43 -44 86 0
-20 -21 22 23 -41 -42 43 44 86 0
20 21 -22 23 41 42 -43 44 86 0
20 -21 22 23 41 -42 43 44 86 0
-20 -21 -22 23 -41 -42 -43 44 86 0
20 -21 -22 23 41 -42 -43 44 86 0
-20 21 22 23 -41 42 43 44 86 0
-20 -21 -22 -23 -41 -42 -43 -44 86 0
20 -21 -22 -23 41 -42 -43 -44 86 0
-20 21 22 -23 -41 42 43 -44 86 0
-20 21 -22 23 -41 42 -43 44 86 0
20 21 22 23 41 42 43 44 86 0
-20 -21 22 -23 -41 -42 43 -44 86 0
13 14 15 33 126 0
20 -21 22 -23 41 -42 43 -44 86 0
-20 21 -22 -23 -41 42 -43 -44 86 0
13 14 33 -125 0
24 -25 45 -46 87 0
-24 -25 -45 -46 87 0
-24 25 -45 46 87 0
24 25 45 46 87 0
13 33 -124 134 -160 0
26 -27 47 -48 88 0
-26 -27 -47 -48 88 0
-13 33 -124 -159 0
-26 27 -47 48 88 0
26 27 47 48 88 0
-12 32 -53 106 122 134 158 0
-13 33 124 134 -160 0
33 34 35 54 55 56 -85 -86 -87 -88 89 90 91 92 93 94 95 96 97 98 -99 0
33 34 35 54 55 56 81 -82 -85 -86 -87 -88 89 90 91 92 93 94 95 96 97 98 0
-49 -89 0
28 -89 0
49 -90 0
-28 -90 0
13 33 105 -125 0
33 34 -35 54 55 -56 -85 -86 -87 -88 89 90 91 92 93 94 95 96 97 98 -99 0
-50 -91 0
29 -91 0
50 -92 0
-29 -92 0
33 34 -35 54 55 -56 81 -82 -85 -86 -87 -88 89 90 91 92 93 94 95 96 97 98 0
33 -34 35 54 -55 56 -85 -86 -87 -88 89 90 91 92 93 94 95 96 97 98 -99 0
-51 -93 0
30 -93 0
15 33 105 124 126 0
51 -94 0
-30 -94 0
33 -34 35 54 -55 56 81 -82 -85 -86 -87 -88 89 90 91 92 93 94 95 96 97 98 0
-52 -95 0
31 -95 0
12 32 -53 -122 134 158 0
52 -96 0
-31 -96 0
33 105 124 -125 0
33 -34 -35 54 -55 -56 -85 -86 -87 -88 89 90 91 92 93 94 95 96 97 98 -99 0
33 -34 -35 54 -55 -56 81 -82 -85 -86 -87 -88 89 90 91 92 93 94 95 96 97 98 0
-33 34 35 -54 55 56 -85 -86 -87 -88 89 90 91 92 93 94 95 96 97 98 -99 0
-53 -97 0
32 -97 0
13 14 33 -161 0
53 -98 0
-32 -98 0
-33 34 35 -54 55 56 81 -82 -85 -86 -87 -88 89 90 91 92 93 94 95 96 97 98 0
-33 34 -35 -54 55 -56 81 -82 -85 -86 -87 -88 89 90 91 92 93 94 95 96 97 98 0
-33 34 -35 -54 55 -56 -85 -86 -87 -88 89 90 91 92 93 94 95 96 97 98 -99 0
-33 -34 35 -54 -55 56 81 -82 -85 -86 -87 -88 89 90 91 92 93 94 95 96 97 98 0
-33 -34 35 -54 -55 56 -85 -86 -87 -88 89 90 91 92 93 94 95 96 97 98 -99 0
-33 -34 -35 -54 -55 -56 -85 -86 -87 -88 89 90 91 92 93 94 95 96 97 98 -99 0
-33 -34 -35 -54 -55 -56 81 -82 -85 -86 -87 -88 89 90 91 92 93 94 95 96 97 98 0
-82 -99 0
81 -99 0
-81 82 99 0
20 -135 0
-20 -40 77 78 -79 80 -133 134 0
40 61 -100 129 135 0
39 -100 0
20 -100 0
-20 -39 100 0
38 -101 0
20 -101 0
-20 -38 101 0
37 -102 0
20 -102 0
-20 -37 102 0
36 -103 0
20 -103 0
-20 -36 103 0
35 -104 0
20 -104 0
-20 -35 104 0
34 -105 0
20 -105 0
-20 -34 105 0
14 20 -161 0
14 -33 -124 134 161 0
14 33 124 -125 0
-12 -20 -32 124 0
-12 32 -53 -123 134 158 0
31 -106 0
20 -106 0
-20 -31 106 0
30 -107 0
20 -107 0
-20 -30 107 0
29 -108 0
20 -108 0
-20 -29 108 0
28 -109 0
20 -109 0
-20 -28 109 0
27 -110 0
20 -110 0
-20 -27 110 0
26 -111 0
20 -111 0
-20 -26 111 0
25 -112 0
20 -112 0
-20 -25 112 0
24 -113 0
20 -113 0
-20 -24 113 0
23 -114 0
20 -114 0
-20 -23 114 0
22 -115 0
20 -115 0
-20 -22 115 0
-1 20 42 -143 0
-21 42 -134 -143 0
-1 21 -41 -42 134 143 0
1 2 -144 0
-1 -3 -21 -115 116 0
20 -116 0
1 3 115 117 0
-1 -2 -20 -21 -117 0
-1 21 42 134 -143 0
-2 -115 -117 0
3 20 117 0
2 115 -116 0
-1 -2 -3 -20 -21 116 0
1 -2 144 0
1 2 3 117 0
-2 -3 -115 116 0
12 32 53 106 122 158 0
2 3 115 117 0
3 -116 0
1 2 -116 0
-4 -113 -114 117 -147 0
4 -113 114 116 -147 0
-4 -45 113 -116 147 0
-3 -117 0
21 -41 42 -134 143 0
-2 20 144 0
4 -45 113 114 116 147 0
-4 -45 113 -114 117 147 0
4 -45 113 -117 147 0
-4 -113 -116 -147 0
-4 45 -113 -114 117 146 0
-4 -113 -117 134 -146 0
-4 113 -114 117 -146 0
4 45 -113 -117 146 0
-4 -45 -113 -117 134 147 0
4 113 -118 0
4 45 -113 114 116 146 0
4 -117 -118 0
-4 -113 118 0
-4 -113 114 116 134 -146 0
-4 113 114 116 134 -147 0
5 -6 112 134 150 0
-5 -112 -118 -149 0
-4 45 113 -117 134 146 0
-5 -7 -111 -112 119 0
6 112 118 -119 0
-5 -6 -7 -118 119 0
-5 112 118 134 -149 0
5 -112 118 -149 0
6 112 118 -150 0
111 112 118 -119 0
-5 -6 -112 -120 0
5 -6 118 134 150 0
-5 -111 -112 -120 0
-7 -111 -112 -118 119 0
5 7 111 112 120 0
-6 -111 -120 0
5 111 118 -119 0
6 111 -119 0
-111 -112 -118 -120 0
4 113 -117 -146 0
-6 112 118 134 150 0
-6 -7 -111 119 0
5 6 118 -150 0
6 7 111 120 0
7 -119 0
7 111 112 118 120 0
6 7 112 118 120 0
-8 -109 -110 120 -153 0
8 -109 110 119 -153 0
-8 -49 109 -119 153 0
-7 -120 0
5 7 111 118 120 0
5 6 118 -119 0
8 -49 109 110 119 153 0
-8 -49 109 -110 120 153 0
8 -49 109 -120 153 0
-8 -109 -119 -153 0
-8 49 -109 -110 120 152 0
-8 -109 -120 134 -152 0
-8 109 -110 120 -152 0
8 49 -109 -120 152 0
-8 -49 -109 -120 134 153 0
8 109 -121 0
8 49 -109 110 119 152 0
8 -120 -121 0
-8 -109 121 0
-8 -109 110 119 134 -152 0
-8 109 110 119 134 -153 0
9 -10 108 134 156 0
-9 -108 -121 -155 0
-8 49 109 -120 134 152 0
-9 -11 -107 -108 122 0
10 108 121 -122 0
-9 -10 -11 -121 122 0
-9 108 121 134 -155 0
9 -108 121 -155 0
10 108 121 -156 0
107 108 121 -122 0
-9 -10 -108 -123 0
9 -10 121 134 156 0
-9 -107 -108 -123 0
-11 -107 -108 -121 122 0
9 11 107 108 123 0
-10 -107 -123 0
9 107 121 -122 0
10 107 -122 0
-107 -108 -121 -123 0
8 109 -120 -152 0
-10 108 121 134 156 0
-10 -11 -107 122 0
9 10 121 -156 0
10 11 107 123 0
11 -122 0
11 107 108 121 123 0
10 11 108 121 123 0
-32 -53 -134 158 0
-20 -32 -122 123 124 0
32 106 122 -124 0
-11 -123 0
9 11 107 121 123 0
9 10 121 -122 0
32 53 -134 158 0
12 20 53 158 0
12 32 -124 0
12 -32 53 -106 123 134 158 0
12 -20 -32 -53 -123 158 0
-12 20 -53 158 0
12 -123 -124 0
12 -20 -32 53 -122 134 158 0
12 32 -53 -106 123 134 158 0
-13 20 -160 0
-33 -134 -160 0
-13 -14 -20 -33 -161 0
15 20 126 0
-13 -14 -15 -124 125 0
13 33 124 -159 0
13 -33 -124 134 -159 0
-14 20 161 0
14 33 124 -161 0
-13 14 -20 -33 134 161 0
13 -14 124 134 161 0
-13 -15 -33 -105 125 0
13 -20 -33 124 -160 0
-14 -105 -126 0
13 105 124 -125 0
14 105 -125 0
-15 -33 -105 -124 125 0
20 -124 0
-14 -15 -105 125 0
13 14 124 -161 0
14 15 105 126 0
15 -125 0
33 -134 -159 0
-16 -103 -104 126 -138 0
16 -103 104 125 -138 0
-16 -57 103 -125 138 0
-15 -126 0
13 15 105 124 126 0
13 14 124 -125 0
16 -57 103 104 125 138 0
-16 -57 103 -104 126 138 0
16 -57 103 -126 138 0
-16 -103 -125 -138 0
-16 57 -103 -104 126 137 0
-16 -103 -126 134 -137 0
-16 103 -104 126 -137 0
16 57 -103 -126 137 0
-16 -57 -103 -126 134 138 0
16 103 -127 0
16 57 -103 104 125 137 0
16 -126 -127 0
-16 -103 127 0
-16 -103 104 125 134 -137 0
-16 103 104 125 134 -138 0
17 -18 102 134 141 0
-17 -102 -127 -140 0
-16 57 103 -126 134 137 0
-17 -19 -101 -102 128 0
18 102 127 -128 0
-17 -18 -19 -127 128 0
-17 102 127 134 -140 0
17 -102 127 -140 0
18 102 127 -141 0
101 102 127 -128 0
-17 -18 -102 -129 0
17 -18 127 134 141 0
-17 -101 -102 -129 0
-19 -101 -102 -127 128 0
17 19 101 102 129 0
-18 -101 -129 0
17 101 127 -128 0
18 101 -128 0
-101 -102 -127 -129 0
16 103 -126 -137 0
-18 102 127 134 141 0
-18 -19 -101 128 0
17 18 127 -141 0
18 19 101 129 0
19 -128 0
19 101 102 127 129 0
18 19 102 127 129 0
40 100 128 -135 0
-20 -40 100 128 134 -136 0
-40 -61 -128 136 0
-19 -129 0
17 19 101 127 129 0
17 18 127 -128 0
40 -134 0
-40 -61 -100 129 136 0
20 -128 0
-20 -40 61 100 128 134 135 0
40 -129 -135 0
17 101 102 -128 0
-40 -100 129 -135 0
40 -61 100 128 136 0
-18 -102 -127 -141 0
-20 -40 -129 134 -136 0
32 -123 -124 0
-18 -19 -102 -127 128 0
62 63 64 130 0
-62 63 64 -130 0
-17 -19 -101 -127 128 0
-62 -63 64 130 0
62 -63 64 -130 0
-17 -18 -127 -141 0
62 63 -64 -130 0
-18 -102 -127 -129 0
-17 -18 -127 -129 0
-62 63 -64 130 0
62 -63 -64 130 0
17 102 -127 134 -140 0
17 58 102 -127 134 139 0
18 -102 -127 134 141 0
17 -58 -102 -127 134 140 0
-62 -63 -64 -130 0
-17 18 -127 134 141 0
17 -102 -127 134 -139 0
-65 -66 67 68 130 -131 0
65 66 67 68 130 -131 0
17 18 102 -128 0
-65 -66 -67 -68 130 -131 0
-65 66 67 68 -130 -131 0
65 66 -67 -68 -130 131 0
65 66 -67 -68 130 -131 0
-65 66 -67 -68 130 131 0
-65 66 -67 68 -130 131 0
-65 -66 -67 68 130 131 0
65 66 -67 68 130 131 0
-65 -66 67 -68 -130 -131 0
-65 66 -67 -68 -130 -131 0
-65 66 67 -68 130 -131 0
-65 -66 -67 -68 -130 131 0
65 -66 -67 68 130 -131 0
65 -66 67 68 -130 -131 0
-65 66 -67 68 130 -131 0
65 -66 -67 68 -130 131 0
65 -66 67 -68 130 -131 0
-65 -66 67 68 -130 131 0
65 -66 -67 -68 130 131 0
65 -66 -67 -68 -130 -131 0
-65 -66 67 -68 130 131 0
-65 66 67 68 130 131 0
-65 66 67 -68 -130 131 0
65 66 -67 68 -130 -131 0
65 -66 67 68 130 131 0
65 -66 67 -68 -130 131 0
17 18 19 102 129 0
65 66 67 68 -130 131 0
-65 -66 -67 68 -130 -131 0
-16 103 -126 134 -138 0
65 66 67 -68 130 131 0
65 66 67 -68 -130 -131 0
17 18 102 -141 0
-69 -70 71 72 131 -132 0
69 70 71 72 131 -132 0
-16 57 -103 -125 137 0
-69 -70 -71 -72 131 -132 0
-69 70 71 72 -131 -132 0
69 70 -71 -72 -131 132 0
69 70 -71 -72 131 -132 0
-69 70 -71 -72 131 132 0
-69 70 -71 72 -131 132 0
-69 -70 -71 72 131 132 0
69 70 -71 72 131 132 0
-69 -70 71 -72 -131 -132 0
-69 70 -71 -72 -131 -132 0
-69 70 71 -72 131 -132 0
-69 -70 -71 -72 -131 132 0
69 -70 -71 72 131 -132 0
69 -70 71 72 -131 -132 0
-69 70 -71 72 131 -132 0
69 -70 -71 72 -131 132 0
69 -70 71 -72 131 -132 0
-69 -70 71 72 -131 132 0
69 -70 -71 -72 131 132 0
69 -70 -71 -72 -131 -132 0
-69 -70 71 -72 131 132 0
-69 70 71 72 131 132 0
-69 70 71 -72 -131 132 0
69 70 -71 72 -131 -132 0
69 -70 71 72 131 132 0
69 -70 71 -72 -131 132 0
103 -126 -127 0
69 70 71 72 -131 132 0
-69 -70 -71 72 -131 -132 0
-16 -125 127 0
69 70 71 -72 131 132 0
69 70 71 -72 -131 -132 0
-16 103 -125 -137 0
-73 -74 75 76 132 -133 0
73 74 75 76 132 -133 0
16 -57 -103 -125 126 134 138 0
-73 -74 -75 -76 132 -133 0
-73 74 75 76 -132 -133 0
73 74 -75 -76 -132 133 0
73 74 -75 -76 132 -133 0
-73 74 -75 -76 132 133 0
-73 74 -75 76 -132 133 0
-73 -74 -75 76 132 133 0
73 74 -75 76 132 133 0
-73 -74 75 -76 -132 -133 0
-73 74 -75 -76 -132 -133 0
-73 74 75 -76 132 -133 0
-73 -74 -75 -76 -132 133 0
73 -74 -75 76 132 -133 0
73 -74 75 76 -132 -133 0
-73 74 -75 76 132 -133 0
73 -74 -75 76 -132 133 0
73 -74 75 -76 132 -133 0
-73 -74 75 76 -132 133 0
73 -74 -75 -76 132 133 0
73 -74 -75 -76 -132 -133 0
-73 -74 75 -76 132 133 0
-73 74 75 76 132 133 0
-73 74 75 -76 -132 133 0
73 74 -75 76 -132 -133 0
73 -74 75 76 132 133 0
73 -74 75 -76 -132 133 0
16 103 -125 126 134 -138 0
73 74 75 76 -132 133 0
-73 -74 -75 76 -132 -133 0
16 57 103 -125 126 134 137 0
73 74 75 -76 132 133 0
73 74 75 -76 -132 -133 0
16 -103 -125 126 134 -137 0
-20 -40 -77 -78 -79 -80 133 134 0
-20 -40 77 78 -79 -80 133 134 0
-14 -33 -124 -126 0
-20 -40 -77 78 -79 80 133 134 0
-20 -40 -77 78 -79 -80 -133 134 0
77 78 -79 -80 -133 -134 0
-20 -40 77 -78 -79 80 133 134 0
-77 78 -79 -80 133 -134 0
-77 78 -79 80 -133 -134 0
-77 -78 -79 80 133 -134 0
77 78 -79 80 133 -134 0
-20 -40 77 78 79 80 133 134 0
-20 -40 -77 -78 -79 80 -133 134 0
-20 -40 77 -78 79 80 -133 134 0
-77 -78 -79 -80 -133 -134 0
-20 -40 77 -78 79 -80 133 134 0
-20 -40 77 -78 -79 -80 -133 134 0
-20 -40 -77 78 79 -80 133 134 0
77 -78 -79 80 -133 -134 0
-20 -40 -77 -78 79 80 133 134 0
-77 -78 79 80 -133 -134 0
77 -78 -79 -80 133 -134 0
-20 -40 61 -129 134 135 0
-77 -78 79 -80 133 -134 0
-77 78 79 80 133 -134 0
-77 78 79 -80 -133 -134 0
-20 -40 77 78 79 -80 -133 134 0
77 -78 79 80 133 -134 0
77 -78 79 -80 -133 -134 0
20 -125 0
77 78 79 80 -133 -134 0
-20 -40 -77 -78 79 -80 -133 134 0
-13 -33 -105 -126 0
-12 -20 -32 53 106 122 134 158 0
-14 -15 -33 -124 125 0
-13 -15 -105 -124 125 0
20 -61 136 0
77 78 79 -80 133 -134 0
-13 -20 -33 124 134 -159 0
40 -61 -129 136 0
-40 -128 129 -135 0
-13 -14 -124 -161 0
-61 -135 0
-134 -135 0
40 -100 129 -136 0
61 -136 0
20 -134 0
-61 -134 136 0
-136 -142 0
59 60 100 101 -134 136 137 138 139 140 142 0
-13 14 -124 134 161 0
16 -103 -104 126 134 -137 0
103 104 125 -127 0
16 103 104 125 -137 0
103 -134 -137 0
-103 -104 126 127 0
-16 -57 -103 104 125 134 138 0
-57 103 -134 138 0
-103 -125 126 127 0
-16 -104 126 127 0
-103 -134 -138 0
16 103 -104 126 134 -138 0
-16 57 103 104 125 134 137 0
-14 -33 -124 -161 0
-57 -137 0
57 -103 -134 137 0
16 57 103 -104 126 134 137 0
57 -138 0
16 -103 -126 -138 0
16 -57 -103 -104 126 134 138 0
-138 -142 0
59 -60 -100 101 -134 136 137 138 139 140 142 0
-17 58 -102 -127 139 0
-17 -58 -102 127 134 140 0
17 18 19 127 129 0
102 -134 -139 0
-17 -18 -102 -141 0
17 102 127 -139 0
-58 102 -134 140 0
-17 -18 -19 -102 128 0
-17 -58 102 -127 140 0
-102 -134 -140 0
-17 102 -127 -139 0
17 58 -102 127 139 0
20 -53 -122 123 158 0
-58 -139 0
58 -102 -134 139 0
17 -58 102 127 140 0
58 -140 0
-17 -102 127 134 -139 0
-17 -101 -127 -129 0
-140 -142 0
59 60 -100 101 128 129 134 135 136 137 138 139 140 141 142 0
59 -60 100 101 128 129 134 135 136 137 138 139 140 141 142 0
-12 -122 123 124 0
16 104 125 -127 0
-17 18 -102 134 141 0
-134 -141 0
-12 32 53 -106 123 158 0
-17 58 102 127 134 139 0
-59 60 100 -101 -134 136 137 138 139 140 142 0
-10 -11 -108 -121 122 0
-59 60 -100 -101 128 129 134 135 136 137 138 139 140 141 142 0
59 -60 -100 -101 -129 135 136 137 138 139 140 -141 142 0
-59 -60 100 -101 128 129 134 135 136 137 138 139 140 141 142 0
59 60 100 101 -129 135 136 137 138 139 140 141 142 0
-59 -60 -100 -101 -128 135 136 137 138 139 140 141 142 0
59 -60 100 -101 128 129 135 136 137 138 139 140 -141 142 0
-59 -60 -100 -101 -129 135 136 137 138 139 140 141 142 0
-59 60 -100 101 128 129 135 136 137 138 139 140 -141 142 0
-59 60 100 101 -129 135 136 137 138 139 140 -141 142 0
-59 60 100 -101 -129 135 136 137 138 139 140 141 142 0
-135 -142 0
59 60 100 101 -128 135 136 137 138 139 140 141 142 0
59 60 100 -101 -129 135 136 137 138 139 140 -141 142 0
-137 -142 0
59 -60 -100 101 -128 135 136 137 138 139 140 141 142 0
-59 -60 -100 101 -128 135 136 137 138 139 140 -141 142 0
-139 -142 0
59 -60 -100 101 -129 135 136 137 138 139 140 141 142 0
-59 60 100 101 -128 135 136 137 138 139 140 -141 142 0
59 60 -100 -101 128 129 135 136 137 138 139 140 -141 142 0
-59 60 100 -101 -128 135 136 137 138 139 140 141 142 0
-59 -60 -100 -101 -134 136 137 138 139 140 142 0
59 -60 -100 -101 -128 135 136 137 138 139 140 -141 142 0
59 60 100 -101 -128 135 136 137 138 139 140 -141 142 0
-12 -32 -53 -106 123 158 0
-10 -108 -121 -156 0
9 107 108 -122 0
-59 -60 100 101 128 129 135 136 137 138 139 140 -141 142 0
10 -108 -121 134 156 0
-10 -108 -121 -123 0
-59 -60 -100 101 -129 135 136 137 138 139 140 -141 142 0
-9 -10 -121 -156 0
-13 -14 -124 -126 0
-9 -11 -107 -121 122 0
-21 -41 -42 -134 143 0
1 20 -42 -143 0
2 20 -144 0
1 -20 -21 42 -143 0
1 20 -41 42 143 0
-9 10 -121 134 156 0
-1 -20 -21 -42 134 -143 0
12 32 53 -123 158 0
9 50 108 -121 134 154 0
1 -20 -21 -41 -42 143 0
-1 20 -41 -42 143 0
9 108 -121 134 -155 0
-1 -20 -21 -41 42 134 143 0
9 10 11 108 123 0
9 -50 -108 -121 134 155 0
-9 -10 -121 -123 0
9 10 108 -122 0
9 -108 -121 134 -154 0
9 10 108 -156 0
109 -120 -121 0
41 -143 0
-8 109 -120 134 -153 0
-1 -21 -115 -117 0
-1 2 -20 -21 144 0
1 115 -116 0
-1 -2 -20 -21 -144 0
-43 115 -134 -145 0
-43 -115 134 -144 -145 0
43 -44 -114 115 -116 144 145 0
43 44 -114 -115 116 117 134 -144 145 0
-43 44 -114 -115 116 117 134 144 145 0
-43 -44 -114 115 -117 134 -144 145 0
43 -44 -114 115 -134 145 0
43 44 114 115 -116 144 145 0
43 44 114 -115 -116 134 -144 145 0
43 -115 -134 -145 0
43 -44 -114 115 -117 144 145 0
43 -44 -114 -115 -116 134 -144 145 0
-43 -44 114 115 116 117 134 -144 145 0
-43 115 144 -145 0
-44 114 -116 -145 0
-44 -114 116 117 134 -145 0
44 -114 -117 -145 0
-44 114 -134 -145 0
43 -44 114 -115 116 117 134 -144 145 0
-43 44 -114 115 116 117 134 -144 145 0
43 44 -114 115 116 117 134 144 145 0
44 114 116 117 134 -145 0
43 115 134 -144 -145 0
43 -44 114 115 116 117 134 144 145 0
-43 44 114 -115 -134 145 0
43 -44 -114 -115 -117 134 -144 145 0
-44 114 -117 -145 0
-43 -44 -114 -115 -134 145 0
44 -114 -116 -145 0
-43 44 114 115 -117 134 -144 145 0
43 44 114 115 -134 145 0
44 -114 -134 -145 0
43 -115 144 -145 0
43 44 114 115 -117 144 145 0
-43 44 114 115 -116 134 -144 145 0
145 -151 0
47 48 110 111 -134 -143 -145 146 147 148 149 151 0
-43 44 114 -115 -116 144 145 0
4 -113 -114 117 134 -146 0
113 114 116 -118 0
4 113 114 116 -146 0
113 -134 -146 0
-113 -114 117 118 0
-4 -45 -113 114 116 134 147 0
-45 113 -134 147 0
-113 -116 117 118 0
-43 -44 -114 -115 -116 144 145 0
-4 -114 117 118 0
-113 -134 -147 0
-43 44 114 -115 -117 144 145 0
4 113 -114 117 134 -147 0
-4 45 113 114 116 134 146 0
-43 -44 -114 -115 -117 144 145 0
-45 -146 0
45 -113 -134 146 0
4 45 113 -114 117 134 146 0
45 -147 0
4 -113 -117 -147 0
4 -45 -113 -114 117 134 147 0
-147 -151 0
47 -48 -110 111 -134 -143 -145 146 147 148 149 151 0
-8 49 -109 -119 120 152 0
-5 46 -112 -118 148 0
-5 -46 -112 118 134 149 0
5 6 7 118 120 0
112 -134 -148 0
-5 -6 -112 -150 0
5 112 118 -148 0
-46 112 -134 149 0
-5 -6 -7 -112 119 0
-8 -119 120 121 0
-5 -46 112 -118 149 0
-112 -134 -149 0
8 109 -119 120 134 -153 0
-5 112 -118 -148 0
5 46 -112 118 148 0
8 -109 -119 120 134 -152 0
-46 -148 0
46 -112 -134 148 0
5 -46 112 118 149 0
46 -149 0
-5 -112 118 134 -148 0
-5 -111 -118 -120 0
-149 -151 0
47 48 -110 111 119 120 134 -143 -145 146 147 148 149 150 151 0
8 49 109 -119 120 134 152 0
8 -49 -109 -119 120 134 153 0
47 -48 110 111 119 120 134 -143 -145 146 147 148 149 150 151 0
-6 -112 -118 -150 0
4 114 116 -118 0
-5 6 -112 134 150 0
-6 -112 -118 -120 0
-134 -150 0
-6 -7 -112 -118 119 0
-5 46 112 118 134 148 0
-47 48 110 -111 -134 -143 -145 146 147 148 149 151 0
-5 6 -118 134 150 0
-47 48 -110 -111 119 120 134 -143 -145 146 147 148 149 150 151 0
-8 109 -119 120 -152 0
47 -48 -110 -111 -120 -143 -145 146 147 148 149 -150 151 0
-47 -48 110 -111 119 120 134 -143 -145 146 147 148 149 150 151 0
47 48 110 111 -120 -143 -145 146 147 148 149 150 151 0
-47 -48 -110 -111 -119 -143 -145 146 147 148 149 150 151 0
47 -48 110 -111 119 120 -143 -145 146 147 148 149 -150 151 0
-47 -48 -110 -111 -120 -143 -145 146 147 148 149 150 151 0
-47 48 -110 111 119 120 -143 -145 146 147 148 149 -150 151 0
-47 48 110 111 -120 -143 -145 146 147 148 149 -150 151 0
-47 48 110 -111 -120 -143 -145 146 147 148 149 150 151 0
143 -151 0
47 48 110 111 -119 -143 -145 146 147 148 149 150 151 0
47 48 110 -111 -120 -143 -145 146 147 148 149 -150 151 0
-146 -151 0
47 -48 -110 111 -119 -143 -145 146 147 148 149 150 151 0
-47 -48 -110 111 -119 -143 -145 146 147 148 149 -150 151 0
-148 -151 0
47 -48 -110 111 -120 -143 -145 146 147 148 149 150 151 0
-47 48 110 111 -119 -143 -145 146 147 148 149 -150 151 0
47 48 -110 -111 119 120 -143 -145 146 147 148 149 -150 151 0
-47 48 110 -111 -119 -143 -145 146 147 148 149 150 151 0
-47 -48 -110 -111 -134 -143 -145 146 147 148 149 151 0
47 -48 -110 -111 -119 -143 -145 146 147 148 149 -150 151 0
-5 -7 -111 -118 119 0
47 48 110 -111 -119 -143 -145 146 147 148 149 -150 151 0
6 -112 -118 134 150 0
-5 -6 -118 -120 0
-5 -6 -118 -150 0
-47 -48 110 111 119 120 -143 -145 146 147 148 149 -150 151 0
5 112 -118 134 -149 0
5 46 112 -118 134 148 0
-47 -48 -110 111 -120 -143 -145 146 147 148 149 -150 151 0
5 -46 -112 -118 134 149 0
-43 -44 114 -115 116 117 134 144 145 0
5 -112 -118 134 -148 0
5 111 112 -119 0
8 -109 -110 120 134 -152 0
109 110 119 -121 0
8 109 110 119 -152 0
109 -134 -152 0
-109 -110 120 121 0
-8 -49 -109 110 119 134 153 0
-49 109 -134 153 0
-109 -119 120 121 0
5 6 7 112 120 0
-8 -110 120 121 0
-109 -134 -153 0
5 6 112 -150 0
8 109 -110 120 134 -153 0
-8 49 109 110 119 134 152 0
5 6 112 -119 0
-49 -152 0
49 -109 -134 152 0
8 49 109 -110 120 134 152 0
49 -153 0
8 -109 -120 -153 0
8 -49 -109 -110 120 134 153 0
-153 -157 0
51 52 106 107 -134 152 153 154 155 157 0
113 -117 -118 0
-9 50 -108 -121 154 0
-9 -50 -108 121 134 155 0
9 10 11 121 123 0
108 -134 -154 0
-9 -10 -108 -156 0
9 108 121 -154 0
-50 108 -134 155 0
-9 -10 -11 -108 122 0
-4 113 -116 117 -146 0
-9 -50 108 -121 155 0
-108 -134 -155 0
-4 45 -113 -116 117 146 0
-9 108 -121 -154 0
9 50 -108 121 154 0
-4 -116 117 118 0
-50 -154 0
50 -108 -134 154 0
9 -50 108 121 155 0
50 -155 0
-9 -108 121 134 -154 0
-9 -107 -121 -123 0
-155 -157 0
51 -52 -106 107 -134 152 153 154 155 157 0
4 -113 -116 117 134 -146 0
4 113 -116 117 134 -147 0
51 52 -106 107 122 123 134 152 153 154 155 156 157 0
4 45 113 -116 117 134 146 0
8 110 119 -121 0
-9 10 -108 134 156 0
1 21 -41 42 143 0
-134 -156 0
1 21 -42 -143 0
-9 50 108 121 134 154 0
-51 -52 -106 107 -123 152 153 154 155 -156 157 0
-2 21 144 0
-51 -52 -106 -107 -134 152 153 154 155 157 0
-4 113 -117 134 -147 0
51 52 106 -107 -123 152 153 154 155 -156 157 0
-51 52 -106 -107 122 123 134 152 153 154 155 156 157 0
51 -52 -106 107 -122 152 153 154 155 156 157 0
-51 52 106 -107 -122 152 153 154 155 156 157 0
51 52 -106 -107 122 123 152 153 154 155 -156 157 0
-51 52 106 -107 -123 152 153 154 155 156 157 0
51 -52 -106 -107 -123 152 153 154 155 -156 157 0
-51 -52 -106 107 -122 152 153 154 155 -156 157 0
-51 -52 -106 -107 -122 152 153 154 155 156 157 0
-51 -52 -106 -107 -123 152 153 154 155 156 157 0
51 -52 106 107 122 123 134 152 153 154 155 156 157 0
51 -52 -106 -107 -122 152 153 154 155 -156 157 0
-152 -157 0
51 52 106 107 -122 152 153 154 155 156 157 0
-51 52 106 107 -122 152 153 154 155 -156 157 0
-154 -157 0
51 52 106 107 -123 152 153 154 155 156 157 0
-51 -52 106 107 122 123 152 153 154 155 -156 157 0
51 -52 -106 107 -123 152 153 154 155 156 157 0
-51 -52 106 -107 122 123 134 152 153 154 155 156 157 0
-51 52 106 -107 -134 152 153 154 155 157 0
51 52 106 -107 -122 152 153 154 155 -156 157 0
2 3 21 117 0
51 -52 106 -107 122 123 152 153 154 155 -156 157 0
21 -42 -134 -143 0
2 21 -116 0
2 21 -144 0
-51 52 -106 107 122 123 152 153 154 155 -156 157 0
3 21 115 117 0
4 -45 -113 -116 117 134 147 0
21 115 -116 0
-51 52 106 107 -123 152 153 154 155 -156 157 0
-32 -106 123 124 0
13 20 -159 0
40 -128 129 -136 0
-12 -106 123 124 0
-12 -20 -32 53 -123 134 158 0
40 61 -128 129 135 0
-12 20 -122 158 0
12 -20 -32 -53 106 122 158 0
-12 -32 -53 -122 123 158 0
13 14 15 124 126 0
-13 -14 -15 -20 -33 125 0
-13 -14 -20 -33 -126 0
-33 -105 -124 -126 0
-54 -159 0
54 -160 0
-13 -33 -124 -160 0
-13 -105 -124 -126 0
55 56 -99 104 105 -134 -142 -151 -157 -158 159 160 0
55 -56 -99 -104 105 -134 -142 -151 -157 -158 159 160 0
12 106 122 -124 0
-21 -32 -33 -40 -81 -100 -101 -102 -103 -104 -105 -106 -107 -108 -109 -110 -111 -112 -113 -114 -115 0
-134 -161 0
-55 -56 -99 -104 105 -126 -142 -151 -157 -158 159 160 -161 0
55 56 -99 104 -105 -125 -142 -151 -157 -158 159 160 -161 0
-55 -56 -99 -104 -105 -134 -142 -151 -157 -158 159 160 0
55 56 -99 -104 105 125 126 134 -142 -151 -157 -158 159 160 161 0
55 56 -99 104 -105 -126 -142 -151 -157 -158 159 160 -161 0
-55 56 -99 -104 -105 125 126 134 -142 -151 -157 -158 159 160 161 0
55 -56 -99 -104 105 -125 -142 -151 -157 -158 159 160 161 0
-55 56 -99 104 -105 -125 -142 -151 -157 -158 159 160 161 0
-55 -56 -99 104 -105 125 126 134 -142 -151 -157 -158 159 160 161 0
55 56 -99 -104 -105 125 126 -142 -151 -157 -158 159 160 -161 0
-55 56 -99 104 -105 -126 -142 -151 -157 -158 159 160 161 0
-55 -56 -99 -104 -105 -125 -142 -151 -157 -158 159 160 161 0
-55 -56 -99 -104 105 -125 -142 -151 -157 -158 159 160 -161 0
55 -56 -99 104 105 125 126 134 -142 -151 -157 -158 159 160 161 0
-55 -56 -99 -104 -105 -126 -142 -151 -157 -158 159 160 161 0
55 56 -99 104 105 -125 -142 -151 -157 -158 159 160 161 0
-55 -56 -99 104 105 125 126 -142 -151 -157 -158 159 160 -161 0
55 -56 -99 -104 -105 -125 -142 -151 -157 -158 159 160 -161 0
55 56 -99 104 105 -126 -142 -151 -157 -158 159 160 161 0
55 -56 -99 -104 -105 -126 -142 -151 -157 -158 159 160 -161 0
55 -56 -99 -104 105 -126 -142 -151 -157 -158 159 160 161 0
-55 56 -99 104 105 -126 -142 -151 -157 -158 159 160 -161 0
-55 56 -99 -104 105 125 126 -142 -151 -157 -158 159 160 -161 0
-55 56 -99 104 -105 -134 -142 -151 -157 -158 159 160 0
-55 56 -99 104 105 -125 -142 -151 -157 -158 159 160 -161 0
55 -56 -99 104 -105 125 126 -142 -151 -157 -158 159 160 -161 0
-20 -40 -77 78 79 80 -133 134 0
20 21 22 23 24 25 26 27 28 29 30 31 32 33 34 35 36 37 38 39 40 81 0
